
Gurobi 13.0.2 (win64) logging started Fri Jul 24 09:05:13 2026

Set parameter LogFile to value "E:\codes\ExactEBRP\results\gf_c0_mechanism_transfer_c5_round30\runs\stage2__high_imbalance_seed5202__c4_candidate__300s\external\native_logs\L1.1.0.0.1.1.0.0.1_terminal_mip.gurobi.log"
Gurobi Optimizer version 13.0.2 build v13.0.2rc1 (win64 - Windows 10.0 (19045.2))

CPU model: 12th Gen Intel(R) Core(TM) i7-12700KF, instruction set [SSE2|AVX|AVX2]
Thread count: 12 physical cores, 20 logical processors, using up to 1 threads

Non-default parameters:
TimeLimit  268.4064439
MIPGap  0
MIPGapAbs  0
LogToConsole  0
Threads  1

Optimize a model with 11923 rows, 3380 columns and 67410 nonzeros (Min)
Model fingerprint: 0xb77b0e78
Model has 21 linear objective coefficients
Variable types: 1687 continuous, 1693 integer (1493 binary)
Coefficient statistics:
  Matrix range     [2e-02, 2e+04]
  Objective range  [2e-02, 1e+00]
  Bounds range     [4e-01, 7e+02]
  RHS range        [4e-01, 5e+04]

Presolve removed 1699 rows and 64 columns
Presolve time: 0.18s
Presolved: 10224 rows, 3316 columns, 74573 nonzeros
Variable types: 1641 continuous, 1675 integer (1496 binary)

Root relaxation: objective 1.017139e+00, 3504 iterations, 0.18 seconds (0.48 work units)

    Nodes    |    Current Node    |     Objective Bounds      |     Work
 Expl Unexpl |  Obj  Depth IntInf | Incumbent    BestBd   Gap | It/Node Time

     0     0    1.01714    0  218          -    1.01714      -     -    0s
     0     0    1.05219    0  228          -    1.05219      -     -    0s
     0     0    1.07880    0  306          -    1.07880      -     -    1s
     0     0    1.07925    0  293          -    1.07925      -     -    1s
     0     0    1.08831    0  299          -    1.08831      -     -    1s
     0     0    1.08866    0  291          -    1.08866      -     -    1s
     0     0    1.09017    0  318          -    1.09017      -     -    2s
     0     0    1.09045    0  319          -    1.09045      -     -    2s
     0     0    1.09381    0  339          -    1.09381      -     -    3s
     0     0    1.09431    0  338          -    1.09431      -     -    3s
     0     0    1.09496    0  351          -    1.09496      -     -    4s
     0     0    1.09634    0  353          -    1.09634      -     -    4s
     0     0    1.09777    0  300          -    1.09777      -     -    5s
     0     0    1.09804    0  348          -    1.09804      -     -    5s
     0     0    1.09831    0  335          -    1.09831      -     -    5s
     0     0    1.09838    0  344          -    1.09838      -     -    5s
     0     0    1.09859    0  369          -    1.09859      -     -    6s
     0     0    1.09866    0  365          -    1.09866      -     -    6s
     0     0    1.09927    0  318          -    1.09927      -     -    7s
     0     0    1.09957    0  362          -    1.09957      -     -    7s
     0     0    1.09977    0  386          -    1.09977      -     -    7s
     0     0    1.09986    0  369          -    1.09986      -     -    8s
     0     0    1.10036    0  375          -    1.10036      -     -    8s
     0     0    1.10045    0  371          -    1.10045      -     -    8s
     0     0    1.10053    0  363          -    1.10053      -     -    9s
     0     0    1.10059    0  361          -    1.10059      -     -    9s
     0     0    1.10085    0  336          -    1.10085      -     -   10s
     0     0    1.10089    0  346          -    1.10089      -     -   10s
     0     0    1.10118    0  359          -    1.10118      -     -   11s
     0     0    1.10126    0  388          -    1.10126      -     -   11s
     0     0    1.10137    0  385          -    1.10137      -     -   12s
     0     0    1.10142    0  379          -    1.10142      -     -   12s
     0     0    1.10149    0  401          -    1.10149      -     -   13s
     0     0    1.10151    0  391          -    1.10151      -     -   13s
     0     0    1.10162    0  387          -    1.10162      -     -   14s
     0     0    1.10166    0  376          -    1.10166      -     -   14s
     0     0    1.10174    0  411          -    1.10174      -     -   15s
     0     0    1.10175    0  394          -    1.10175      -     -   15s
     0     0    1.10180    0  402          -    1.10180      -     -   15s
     0     0    1.10183    0  394          -    1.10183      -     -   15s
     0     0    1.10184    0  376          -    1.10184      -     -   16s
     0     0    1.10184    0  376          -    1.10184      -     -   16s
     0     0    1.10184    0  365          -    1.10184      -     -   16s
     0     2    1.10184    0  364          -    1.10184      -     -   17s
     3     5    1.10735    2  276          -    1.10184      -   811   20s
    24    24    1.11366   16  267          -    1.10184      -  1164   25s
    39    38    1.11762   27  211          -    1.10184      -   923   30s
   226   217    1.12328    7  225          -    1.10241      -   323   35s
   341   331    1.12834  118  213          -    1.10241      -   265   40s
   500   474    1.13058  138  254          -    1.10276      -   215   45s
   542   497    1.12507   20  330          -    1.10374      -   216   50s
   546   500    1.12744   51  316          -    1.10374      -   215   55s
   550   502    1.12802  163  360          -    1.10374      -   213   60s
   553   504    1.10847    6  420          -    1.10479      -   212   65s
   557   507    1.13926  194  390          -    1.10546      -   210   70s
   561   510    1.13224  146  367          -    1.10597      -   209   75s
   564   512    1.12963  191  406          -    1.10625      -   208   80s
   568   514    1.11612   24  408          -    1.10652      -   206   85s
   574   518    1.12761  120  418          -    1.10658      -   204   90s
   580   522    1.12715   61  401          -    1.10659      -   202   95s
   586   528    1.11276   18  329          -    1.10987      -   337  101s
   591   532    1.11596   21  302          -    1.10987      -   347  105s
   598   534    1.12930   24  268          -    1.10987      -   350  110s
   624   544    1.14167   37  259          -    1.10987      -   368  115s
   657   550 infeasible   30               -    1.10993      -   384  120s
   696   542    1.13130   22  240          -    1.11299      -   394  125s
   706   548    1.13800   27  197          -    1.11299      -   396  131s
   738   548    1.12270   22  292          -    1.11596      -   413  135s
   791   553    1.13908   49  144          -    1.11596      -   415  140s
   823   554    1.13212   29  251          -    1.11761      -   427  145s
   880   543    1.12964   26  212          -    1.11830      -   435  150s
   950   578    1.12255   19  224          -    1.11830      -   419  159s
   952   579    1.12258   20  215          -    1.11830      -   420  160s
  1018   615    1.14619   67  151          -    1.11830      -   415  165s
  1122   671    1.15242   22  248          -    1.11836      -   392  170s
  1163   680    1.15070   42  207          -    1.11902      -   393  175s
  1203   681 infeasible   27               -    1.12055      -   403  180s
  1257   685    1.13886   28  175          -    1.12079      -   410  185s
  1305   681    1.13668   24  251          -    1.12131      -   421  190s
  1312   685    1.13651   30  232          -    1.12131      -   422  195s
  1347   691 infeasible   27               -    1.12144      -   422  200s
  1403   710    1.13772   30  258          -    1.12149      -   422  205s
  1473   735    1.12632   23  263          -    1.12168      -   416  210s
  1524   745 infeasible   39               -    1.12171      -   422  215s
  1560   755 infeasible   37               -    1.12187      -   424  220s
  1621   751    1.13713   32  223          -    1.12310      -   426  225s
  1700   788    1.14600   39  164          -    1.12410      -   416  230s
  1744   793    1.15031   35  220          -    1.12448      -   419  235s
  1819   795    1.15267   36  171          -    1.12450      -   418  240s
  1881   805    1.12525   22  277          -    1.12466      -   419  245s
  1924   801    1.12653   30  277          -    1.12569      -   426  250s
  1950   811 infeasible   43               -    1.12569      -   427  255s
  1994   808    1.14922   33  235          -    1.12633      -   430  260s
  2056   799    1.15055   23  213          -    1.12674      -   432  265s

Cutting planes:
  Learned: 13
  Cover: 39
  Implied bound: 91
  Projected implied bound: 17
  Clique: 17
  MIR: 113
  StrongCG: 5
  Flow cover: 200
  GUB cover: 6
  Network: 22
  RLT: 5
  Relax-and-lift: 20

Explored 2101 nodes (967060 simplex iterations) in 268.41 seconds (514.97 work units)
Thread count was 1 (of 20 available processors)

Solution count 0

Time limit reached
Best objective -, best bound 1.126751519302e+00, gap -

User-callback calls 65091, time in user-callback 0.01 sec
